49 49
5 5
4 4
2 4
2 10
9 10
6 2
9 1
1 2
2 7
2 4
7 8
8 4
10 7
4 7
3 4
3 3
3 2
9 5
10 1
7 3
1 3
5 10
3 8
6 8
9 6
2 7
4 9
5 7
7 7
8 4
5 2
2 7
9 9
7 9
3 8
6 6
2 5
5 8
3 10
6 5
3 9
6 8
4 3
9 6
8 1
1 1
6 6
2 9
5 9
11 17 84
14 11 70
14 16 77
19 17 62
20 18 88
20 19 60
18 11 65
11 20 50
13 10 68
15 20 86
15 14 99
16 16 52
10 16 66
14 14 66
12 20 90
19 12 81
10 18 76
12 19 77
14 19 51
12 17 70
15 20 88
12 15 78
20 12 50
14 20 76
12 11 75
14 18 54
14 16 67
12 16 78
11 11 74
15 11 80
11 17 75
20 12 51
16 17 87
19 14 66
16 18 94
17 10 53
19 16 98
10 14 94
11 17 50
12 18 96
16 11 81
16 10 97
16 16 66
14 11 98
11 13 94
16 20 68
14 17 54
13 20 50
10 15 54
